n=6;
sp = [2, 3, 5, 4, 3, 2];
ze = [3, 3, 5, 3, 3, 2];
d1 = [0, 1, 2, 3, 3, 3, 3, 2, 1, 0, 1];
d2 = [0, 1, 1, 2, 3, 4, 3, 2, 2, 1, 0];
spalten = [[0, 6, 12, 18, 24, 30], [1, 7, 13, 19, 25, 31], [2, 8, 14, 20, 26, 32], [3, 9, 15, 21, 27, 33], [4, 10, 16, 22, 28, 34], [5, 11, 17, 23, 29, 35]];
zeilen = [[0, 1, 2, 3, 4, 5], [6, 7, 8, 9, 10, 11], [12, 13, 14, 15, 16, 17], [18, 19, 20, 21, 22, 23], [24, 25, 26, 27, 28, 29], [30, 31, 32, 33, 34, 35]];
diagonals1 = [[0], [1, 6], [2, 7, 12], [3, 8, 13, 18], [4, 9, 14, 19, 24], [5, 10, 15, 20, 25, 30], [11, 16, 21, 26, 31], [17, 22, 27, 32], [23, 28, 33], [29, 34], [35]];
diagonals2 = [[30], [31, 24], [32, 25, 18], [33, 26, 19, 12], [34, 27, 20, 13, 6], [35, 28, 21, 14, 7, 0], [29, 22, 15, 8, 1], [23, 16, 9, 2], [17, 10, 3], [11, 4], [5]];
